experiments/mac_ortools/detailed-output/inst-31-1310894813.dzn

A = 3;
T = 63;
X = 8;
Y = 8;
Z = 8;
building = array2d(0..7, 0..7,
                   [0, 0, 0, 0, 0, 0, 0, 0, 0, 6, 1, 3, 0, 4, 2, 0, 0, 1, 5, 4, 5, 7, 6, 0, 0, 3, 1, 1, 1, 1, 1, 0,
                    0, 1, 1, 1, 1, 1, 1, 0, 0, 1, 1, 1, 1, 1, 1, 0, 0, 1, 1, 1, 1, 1, 1, 0, 0, 0, 0, 0, 0, 0, 0, 0]);
